set Z;
 set Y;
 param A{r in Z, m in Y} default 0, binary;
 var Route{m in Y}, binary;
 minimize cost: sum{m in Y} Route[m];
 subject to covers{r in Z}: sum{m in Y} A[r,m]*Route[m]>=1;
 solve; 
 printf {m in Y:  Route[m] == 1} "%s ", m > "C:/Sites/first_app/Results.txt";
 data;
set Z:= Z29 ;
set Y:= Y1 Y2 ;
param A := 
[Z29,Y1] 1
;end;
